NAME : single
TYPE : ATSP
DIMENSION : 5
EDGE_WEIGHT_TYPE : EXPLICIT
EDGE_WEIGHT_FORMAT : FULL_MATRIX
EDGE_WEIGHT_SECTION
0 50147 50162 643 121 
0 0 101 298 50000 
0 101 0 263 50000 
0 298 263 0 50000 
0 50000 50000 50000 0 
EOF